<?xml version="1.0" encoding="UTF-8" standalone="no"?>
   <instance format="XCSP3" type="CSP"> <variables><var id="start_j1">0..100000000</var>
<var id="start_j2">0..100000000</var>
<var id="start_j3">0..100000000</var>
<var id="start_j4">0..100000000</var>
<var id="start_j5">0..100000000</var>
<var id="start_j6">0..100000000</var>
<var id="start_j7">0..100000000</var>
<var id="start_j8">0..100000000</var>
<var id="start_j9">0..100000000</var>
<var id="start_j10">0..100000000</var>
<var id="start_j11">0..100000000</var>
<var id="start_j12">0..100000000</var>
<var id="start_j13">0..100000000</var>
<var id="start_j14">0..100000000</var>
<var id="task_1_runs_when_2_starts">0..1</var>
<var id="task_1_runs_when_3_starts">0..1</var>
<var id="task_1_runs_when_4_starts">0..1</var>
<var id="task_1_runs_when_5_starts">0..1</var>
<var id="task_1_runs_when_6_starts">0..1</var>
<var id="task_1_runs_when_7_starts">0..1</var>
<var id="task_1_runs_when_8_starts">0..1</var>
<var id="task_1_runs_when_9_starts">0..1</var>
<var id="task_1_runs_when_10_starts">0..1</var>
<var id="task_1_runs_when_11_starts">0..1</var>
<var id="task_1_runs_when_12_starts">0..1</var>
<var id="task_1_runs_when_13_starts">0..1</var>
<var id="task_1_runs_when_14_starts">0..1</var>
<var id="task_2_runs_when_1_starts">0..1</var>
<var id="task_2_runs_when_3_starts">0..1</var>
<var id="task_2_runs_when_4_starts">0..1</var>
<var id="task_2_runs_when_5_starts">0..1</var>
<var id="task_2_runs_when_6_starts">0..1</var>
<var id="task_2_runs_when_7_starts">0..1</var>
<var id="task_2_runs_when_8_starts">0..1</var>
<var id="task_2_runs_when_9_starts">0..1</var>
<var id="task_2_runs_when_10_starts">0..1</var>
<var id="task_2_runs_when_11_starts">0..1</var>
<var id="task_2_runs_when_12_starts">0..1</var>
<var id="task_2_runs_when_13_starts">0..1</var>
<var id="task_2_runs_when_14_starts">0..1</var>
<var id="task_3_runs_when_1_starts">0..1</var>
<var id="task_3_runs_when_2_starts">0..1</var>
<var id="task_3_runs_when_4_starts">0..1</var>
<var id="task_3_runs_when_5_starts">0..1</var>
<var id="task_3_runs_when_6_starts">0..1</var>
<var id="task_3_runs_when_7_starts">0..1</var>
<var id="task_3_runs_when_8_starts">0..1</var>
<var id="task_3_runs_when_9_starts">0..1</var>
<var id="task_3_runs_when_10_starts">0..1</var>
<var id="task_3_runs_when_11_starts">0..1</var>
<var id="task_3_runs_when_12_starts">0..1</var>
<var id="task_3_runs_when_13_starts">0..1</var>
<var id="task_3_runs_when_14_starts">0..1</var>
<var id="task_4_runs_when_1_starts">0..1</var>
<var id="task_4_runs_when_2_starts">0..1</var>
<var id="task_4_runs_when_3_starts">0..1</var>
<var id="task_4_runs_when_5_starts">0..1</var>
<var id="task_4_runs_when_6_starts">0..1</var>
<var id="task_4_runs_when_7_starts">0..1</var>
<var id="task_4_runs_when_8_starts">0..1</var>
<var id="task_4_runs_when_9_starts">0..1</var>
<var id="task_4_runs_when_10_starts">0..1</var>
<var id="task_4_runs_when_11_starts">0..1</var>
<var id="task_4_runs_when_12_starts">0..1</var>
<var id="task_4_runs_when_13_starts">0..1</var>
<var id="task_4_runs_when_14_starts">0..1</var>
<var id="task_5_runs_when_1_starts">0..1</var>
<var id="task_5_runs_when_2_starts">0..1</var>
<var id="task_5_runs_when_3_starts">0..1</var>
<var id="task_5_runs_when_4_starts">0..1</var>
<var id="task_5_runs_when_6_starts">0..1</var>
<var id="task_5_runs_when_7_starts">0..1</var>
<var id="task_5_runs_when_8_starts">0..1</var>
<var id="task_5_runs_when_9_starts">0..1</var>
<var id="task_5_runs_when_10_starts">0..1</var>
<var id="task_5_runs_when_11_starts">0..1</var>
<var id="task_5_runs_when_12_starts">0..1</var>
<var id="task_5_runs_when_13_starts">0..1</var>
<var id="task_5_runs_when_14_starts">0..1</var>
<var id="task_6_runs_when_1_starts">0..1</var>
<var id="task_6_runs_when_2_starts">0..1</var>
<var id="task_6_runs_when_3_starts">0..1</var>
<var id="task_6_runs_when_4_starts">0..1</var>
<var id="task_6_runs_when_5_starts">0..1</var>
<var id="task_6_runs_when_7_starts">0..1</var>
<var id="task_6_runs_when_8_starts">0..1</var>
<var id="task_6_runs_when_9_starts">0..1</var>
<var id="task_6_runs_when_10_starts">0..1</var>
<var id="task_6_runs_when_11_starts">0..1</var>
<var id="task_6_runs_when_12_starts">0..1</var>
<var id="task_6_runs_when_13_starts">0..1</var>
<var id="task_6_runs_when_14_starts">0..1</var>
<var id="task_7_runs_when_1_starts">0..1</var>
<var id="task_7_runs_when_2_starts">0..1</var>
<var id="task_7_runs_when_3_starts">0..1</var>
<var id="task_7_runs_when_4_starts">0..1</var>
<var id="task_7_runs_when_5_starts">0..1</var>
<var id="task_7_runs_when_6_starts">0..1</var>
<var id="task_7_runs_when_8_starts">0..1</var>
<var id="task_7_runs_when_9_starts">0..1</var>
<var id="task_7_runs_when_10_starts">0..1</var>
<var id="task_7_runs_when_11_starts">0..1</var>
<var id="task_7_runs_when_12_starts">0..1</var>
<var id="task_7_runs_when_13_starts">0..1</var>
<var id="task_7_runs_when_14_starts">0..1</var>
<var id="task_8_runs_when_1_starts">0..1</var>
<var id="task_8_runs_when_2_starts">0..1</var>
<var id="task_8_runs_when_3_starts">0..1</var>
<var id="task_8_runs_when_4_starts">0..1</var>
<var id="task_8_runs_when_5_starts">0..1</var>
<var id="task_8_runs_when_6_starts">0..1</var>
<var id="task_8_runs_when_7_starts">0..1</var>
<var id="task_8_runs_when_9_starts">0..1</var>
<var id="task_8_runs_when_10_starts">0..1</var>
<var id="task_8_runs_when_11_starts">0..1</var>
<var id="task_8_runs_when_12_starts">0..1</var>
<var id="task_8_runs_when_13_starts">0..1</var>
<var id="task_8_runs_when_14_starts">0..1</var>
<var id="task_9_runs_when_1_starts">0..1</var>
<var id="task_9_runs_when_2_starts">0..1</var>
<var id="task_9_runs_when_3_starts">0..1</var>
<var id="task_9_runs_when_4_starts">0..1</var>
<var id="task_9_runs_when_5_starts">0..1</var>
<var id="task_9_runs_when_6_starts">0..1</var>
<var id="task_9_runs_when_7_starts">0..1</var>
<var id="task_9_runs_when_8_starts">0..1</var>
<var id="task_9_runs_when_10_starts">0..1</var>
<var id="task_9_runs_when_11_starts">0..1</var>
<var id="task_9_runs_when_12_starts">0..1</var>
<var id="task_9_runs_when_13_starts">0..1</var>
<var id="task_9_runs_when_14_starts">0..1</var>
<var id="task_10_runs_when_1_starts">0..1</var>
<var id="task_10_runs_when_2_starts">0..1</var>
<var id="task_10_runs_when_3_starts">0..1</var>
<var id="task_10_runs_when_4_starts">0..1</var>
<var id="task_10_runs_when_5_starts">0..1</var>
<var id="task_10_runs_when_6_starts">0..1</var>
<var id="task_10_runs_when_7_starts">0..1</var>
<var id="task_10_runs_when_8_starts">0..1</var>
<var id="task_10_runs_when_9_starts">0..1</var>
<var id="task_10_runs_when_11_starts">0..1</var>
<var id="task_10_runs_when_12_starts">0..1</var>
<var id="task_10_runs_when_13_starts">0..1</var>
<var id="task_10_runs_when_14_starts">0..1</var>
<var id="task_11_runs_when_1_starts">0..1</var>
<var id="task_11_runs_when_2_starts">0..1</var>
<var id="task_11_runs_when_3_starts">0..1</var>
<var id="task_11_runs_when_4_starts">0..1</var>
<var id="task_11_runs_when_5_starts">0..1</var>
<var id="task_11_runs_when_6_starts">0..1</var>
<var id="task_11_runs_when_7_starts">0..1</var>
<var id="task_11_runs_when_8_starts">0..1</var>
<var id="task_11_runs_when_9_starts">0..1</var>
<var id="task_11_runs_when_10_starts">0..1</var>
<var id="task_11_runs_when_12_starts">0..1</var>
<var id="task_11_runs_when_13_starts">0..1</var>
<var id="task_11_runs_when_14_starts">0..1</var>
<var id="task_12_runs_when_1_starts">0..1</var>
<var id="task_12_runs_when_2_starts">0..1</var>
<var id="task_12_runs_when_3_starts">0..1</var>
<var id="task_12_runs_when_4_starts">0..1</var>
<var id="task_12_runs_when_5_starts">0..1</var>
<var id="task_12_runs_when_6_starts">0..1</var>
<var id="task_12_runs_when_7_starts">0..1</var>
<var id="task_12_runs_when_8_starts">0..1</var>
<var id="task_12_runs_when_9_starts">0..1</var>
<var id="task_12_runs_when_10_starts">0..1</var>
<var id="task_12_runs_when_11_starts">0..1</var>
<var id="task_12_runs_when_13_starts">0..1</var>
<var id="task_12_runs_when_14_starts">0..1</var>
<var id="task_13_runs_when_1_starts">0..1</var>
<var id="task_13_runs_when_2_starts">0..1</var>
<var id="task_13_runs_when_3_starts">0..1</var>
<var id="task_13_runs_when_4_starts">0..1</var>
<var id="task_13_runs_when_5_starts">0..1</var>
<var id="task_13_runs_when_6_starts">0..1</var>
<var id="task_13_runs_when_7_starts">0..1</var>
<var id="task_13_runs_when_8_starts">0..1</var>
<var id="task_13_runs_when_9_starts">0..1</var>
<var id="task_13_runs_when_10_starts">0..1</var>
<var id="task_13_runs_when_11_starts">0..1</var>
<var id="task_13_runs_when_12_starts">0..1</var>
<var id="task_13_runs_when_14_starts">0..1</var>
<var id="task_14_runs_when_1_starts">0..1</var>
<var id="task_14_runs_when_2_starts">0..1</var>
<var id="task_14_runs_when_3_starts">0..1</var>
<var id="task_14_runs_when_4_starts">0..1</var>
<var id="task_14_runs_when_5_starts">0..1</var>
<var id="task_14_runs_when_6_starts">0..1</var>
<var id="task_14_runs_when_7_starts">0..1</var>
<var id="task_14_runs_when_8_starts">0..1</var>
<var id="task_14_runs_when_9_starts">0..1</var>
<var id="task_14_runs_when_10_starts">0..1</var>
<var id="task_14_runs_when_11_starts">0..1</var>
<var id="task_14_runs_when_12_starts">0..1</var>
<var id="task_14_runs_when_13_starts">0..1</var>
</variables>
<constraints>
<intension>iff(task_1_runs_when_2_starts,and(le(start_j1,start_j2),lt(sub(start_j2,start_j1),0)))</intension>
<intension>iff(task_1_runs_when_3_starts,and(le(start_j1,start_j3),lt(sub(start_j3,start_j1),0)))</intension>
<intension>iff(task_1_runs_when_4_starts,and(le(start_j1,start_j4),lt(sub(start_j4,start_j1),0)))</intension>
<intension>iff(task_1_runs_when_5_starts,and(le(start_j1,start_j5),lt(sub(start_j5,start_j1),0)))</intension>
<intension>iff(task_1_runs_when_6_starts,and(le(start_j1,start_j6),lt(sub(start_j6,start_j1),0)))</intension>
<intension>iff(task_1_runs_when_7_starts,and(le(start_j1,start_j7),lt(sub(start_j7,start_j1),0)))</intension>
<intension>iff(task_1_runs_when_8_starts,and(le(start_j1,start_j8),lt(sub(start_j8,start_j1),0)))</intension>
<intension>iff(task_1_runs_when_9_starts,and(le(start_j1,start_j9),lt(sub(start_j9,start_j1),0)))</intension>
<intension>iff(task_1_runs_when_10_starts,and(le(start_j1,start_j10),lt(sub(start_j10,start_j1),0)))</intension>
<intension>iff(task_1_runs_when_11_starts,and(le(start_j1,start_j11),lt(sub(start_j11,start_j1),0)))</intension>
<intension>iff(task_1_runs_when_12_starts,and(le(start_j1,start_j12),lt(sub(start_j12,start_j1),0)))</intension>
<intension>iff(task_1_runs_when_13_starts,and(le(start_j1,start_j13),lt(sub(start_j13,start_j1),0)))</intension>
<intension>iff(task_1_runs_when_14_starts,and(le(start_j1,start_j14),lt(sub(start_j14,start_j1),0)))</intension>
<intension>iff(task_2_runs_when_1_starts,and(le(start_j2,start_j1),lt(sub(start_j1,start_j2),6)))</intension>
<intension>iff(task_2_runs_when_3_starts,and(le(start_j2,start_j3),lt(sub(start_j3,start_j2),6)))</intension>
<intension>iff(task_2_runs_when_4_starts,and(le(start_j2,start_j4),lt(sub(start_j4,start_j2),6)))</intension>
<intension>iff(task_2_runs_when_5_starts,and(le(start_j2,start_j5),lt(sub(start_j5,start_j2),6)))</intension>
<intension>iff(task_2_runs_when_6_starts,and(le(start_j2,start_j6),lt(sub(start_j6,start_j2),6)))</intension>
<intension>iff(task_2_runs_when_7_starts,and(le(start_j2,start_j7),lt(sub(start_j7,start_j2),6)))</intension>
<intension>iff(task_2_runs_when_8_starts,and(le(start_j2,start_j8),lt(sub(start_j8,start_j2),6)))</intension>
<intension>iff(task_2_runs_when_9_starts,and(le(start_j2,start_j9),lt(sub(start_j9,start_j2),6)))</intension>
<intension>iff(task_2_runs_when_10_starts,and(le(start_j2,start_j10),lt(sub(start_j10,start_j2),6)))</intension>
<intension>iff(task_2_runs_when_11_starts,and(le(start_j2,start_j11),lt(sub(start_j11,start_j2),6)))</intension>
<intension>iff(task_2_runs_when_12_starts,and(le(start_j2,start_j12),lt(sub(start_j12,start_j2),6)))</intension>
<intension>iff(task_2_runs_when_13_starts,and(le(start_j2,start_j13),lt(sub(start_j13,start_j2),6)))</intension>
<intension>iff(task_2_runs_when_14_starts,and(le(start_j2,start_j14),lt(sub(start_j14,start_j2),6)))</intension>
<intension>iff(task_3_runs_when_1_starts,and(le(start_j3,start_j1),lt(sub(start_j1,start_j3),4)))</intension>
<intension>iff(task_3_runs_when_2_starts,and(le(start_j3,start_j2),lt(sub(start_j2,start_j3),4)))</intension>
<intension>iff(task_3_runs_when_4_starts,and(le(start_j3,start_j4),lt(sub(start_j4,start_j3),4)))</intension>
<intension>iff(task_3_runs_when_5_starts,and(le(start_j3,start_j5),lt(sub(start_j5,start_j3),4)))</intension>
<intension>iff(task_3_runs_when_6_starts,and(le(start_j3,start_j6),lt(sub(start_j6,start_j3),4)))</intension>
<intension>iff(task_3_runs_when_7_starts,and(le(start_j3,start_j7),lt(sub(start_j7,start_j3),4)))</intension>
<intension>iff(task_3_runs_when_8_starts,and(le(start_j3,start_j8),lt(sub(start_j8,start_j3),4)))</intension>
<intension>iff(task_3_runs_when_9_starts,and(le(start_j3,start_j9),lt(sub(start_j9,start_j3),4)))</intension>
<intension>iff(task_3_runs_when_10_starts,and(le(start_j3,start_j10),lt(sub(start_j10,start_j3),4)))</intension>
<intension>iff(task_3_runs_when_11_starts,and(le(start_j3,start_j11),lt(sub(start_j11,start_j3),4)))</intension>
<intension>iff(task_3_runs_when_12_starts,and(le(start_j3,start_j12),lt(sub(start_j12,start_j3),4)))</intension>
<intension>iff(task_3_runs_when_13_starts,and(le(start_j3,start_j13),lt(sub(start_j13,start_j3),4)))</intension>
<intension>iff(task_3_runs_when_14_starts,and(le(start_j3,start_j14),lt(sub(start_j14,start_j3),4)))</intension>
<intension>iff(task_4_runs_when_1_starts,and(le(start_j4,start_j1),lt(sub(start_j1,start_j4),3)))</intension>
<intension>iff(task_4_runs_when_2_starts,and(le(start_j4,start_j2),lt(sub(start_j2,start_j4),3)))</intension>
<intension>iff(task_4_runs_when_3_starts,and(le(start_j4,start_j3),lt(sub(start_j3,start_j4),3)))</intension>
<intension>iff(task_4_runs_when_5_starts,and(le(start_j4,start_j5),lt(sub(start_j5,start_j4),3)))</intension>
<intension>iff(task_4_runs_when_6_starts,and(le(start_j4,start_j6),lt(sub(start_j6,start_j4),3)))</intension>
<intension>iff(task_4_runs_when_7_starts,and(le(start_j4,start_j7),lt(sub(start_j7,start_j4),3)))</intension>
<intension>iff(task_4_runs_when_8_starts,and(le(start_j4,start_j8),lt(sub(start_j8,start_j4),3)))</intension>
<intension>iff(task_4_runs_when_9_starts,and(le(start_j4,start_j9),lt(sub(start_j9,start_j4),3)))</intension>
<intension>iff(task_4_runs_when_10_starts,and(le(start_j4,start_j10),lt(sub(start_j10,start_j4),3)))</intension>
<intension>iff(task_4_runs_when_11_starts,and(le(start_j4,start_j11),lt(sub(start_j11,start_j4),3)))</intension>
<intension>iff(task_4_runs_when_12_starts,and(le(start_j4,start_j12),lt(sub(start_j12,start_j4),3)))</intension>
<intension>iff(task_4_runs_when_13_starts,and(le(start_j4,start_j13),lt(sub(start_j13,start_j4),3)))</intension>
<intension>iff(task_4_runs_when_14_starts,and(le(start_j4,start_j14),lt(sub(start_j14,start_j4),3)))</intension>
<intension>iff(task_5_runs_when_1_starts,and(le(start_j5,start_j1),lt(sub(start_j1,start_j5),1)))</intension>
<intension>iff(task_5_runs_when_2_starts,and(le(start_j5,start_j2),lt(sub(start_j2,start_j5),1)))</intension>
<intension>iff(task_5_runs_when_3_starts,and(le(start_j5,start_j3),lt(sub(start_j3,start_j5),1)))</intension>
<intension>iff(task_5_runs_when_4_starts,and(le(start_j5,start_j4),lt(sub(start_j4,start_j5),1)))</intension>
<intension>iff(task_5_runs_when_6_starts,and(le(start_j5,start_j6),lt(sub(start_j6,start_j5),1)))</intension>
<intension>iff(task_5_runs_when_7_starts,and(le(start_j5,start_j7),lt(sub(start_j7,start_j5),1)))</intension>
<intension>iff(task_5_runs_when_8_starts,and(le(start_j5,start_j8),lt(sub(start_j8,start_j5),1)))</intension>
<intension>iff(task_5_runs_when_9_starts,and(le(start_j5,start_j9),lt(sub(start_j9,start_j5),1)))</intension>
<intension>iff(task_5_runs_when_10_starts,and(le(start_j5,start_j10),lt(sub(start_j10,start_j5),1)))</intension>
<intension>iff(task_5_runs_when_11_starts,and(le(start_j5,start_j11),lt(sub(start_j11,start_j5),1)))</intension>
<intension>iff(task_5_runs_when_12_starts,and(le(start_j5,start_j12),lt(sub(start_j12,start_j5),1)))</intension>
<intension>iff(task_5_runs_when_13_starts,and(le(start_j5,start_j13),lt(sub(start_j13,start_j5),1)))</intension>
<intension>iff(task_5_runs_when_14_starts,and(le(start_j5,start_j14),lt(sub(start_j14,start_j5),1)))</intension>
<intension>iff(task_6_runs_when_1_starts,and(le(start_j6,start_j1),lt(sub(start_j1,start_j6),6)))</intension>
<intension>iff(task_6_runs_when_2_starts,and(le(start_j6,start_j2),lt(sub(start_j2,start_j6),6)))</intension>
<intension>iff(task_6_runs_when_3_starts,and(le(start_j6,start_j3),lt(sub(start_j3,start_j6),6)))</intension>
<intension>iff(task_6_runs_when_4_starts,and(le(start_j6,start_j4),lt(sub(start_j4,start_j6),6)))</intension>
<intension>iff(task_6_runs_when_5_starts,and(le(start_j6,start_j5),lt(sub(start_j5,start_j6),6)))</intension>
<intension>iff(task_6_runs_when_7_starts,and(le(start_j6,start_j7),lt(sub(start_j7,start_j6),6)))</intension>
<intension>iff(task_6_runs_when_8_starts,and(le(start_j6,start_j8),lt(sub(start_j8,start_j6),6)))</intension>
<intension>iff(task_6_runs_when_9_starts,and(le(start_j6,start_j9),lt(sub(start_j9,start_j6),6)))</intension>
<intension>iff(task_6_runs_when_10_starts,and(le(start_j6,start_j10),lt(sub(start_j10,start_j6),6)))</intension>
<intension>iff(task_6_runs_when_11_starts,and(le(start_j6,start_j11),lt(sub(start_j11,start_j6),6)))</intension>
<intension>iff(task_6_runs_when_12_starts,and(le(start_j6,start_j12),lt(sub(start_j12,start_j6),6)))</intension>
<intension>iff(task_6_runs_when_13_starts,and(le(start_j6,start_j13),lt(sub(start_j13,start_j6),6)))</intension>
<intension>iff(task_6_runs_when_14_starts,and(le(start_j6,start_j14),lt(sub(start_j14,start_j6),6)))</intension>
<intension>iff(task_7_runs_when_1_starts,and(le(start_j7,start_j1),lt(sub(start_j1,start_j7),2)))</intension>
<intension>iff(task_7_runs_when_2_starts,and(le(start_j7,start_j2),lt(sub(start_j2,start_j7),2)))</intension>
<intension>iff(task_7_runs_when_3_starts,and(le(start_j7,start_j3),lt(sub(start_j3,start_j7),2)))</intension>
<intension>iff(task_7_runs_when_4_starts,and(le(start_j7,start_j4),lt(sub(start_j4,start_j7),2)))</intension>
<intension>iff(task_7_runs_when_5_starts,and(le(start_j7,start_j5),lt(sub(start_j5,start_j7),2)))</intension>
<intension>iff(task_7_runs_when_6_starts,and(le(start_j7,start_j6),lt(sub(start_j6,start_j7),2)))</intension>
<intension>iff(task_7_runs_when_8_starts,and(le(start_j7,start_j8),lt(sub(start_j8,start_j7),2)))</intension>
<intension>iff(task_7_runs_when_9_starts,and(le(start_j7,start_j9),lt(sub(start_j9,start_j7),2)))</intension>
<intension>iff(task_7_runs_when_10_starts,and(le(start_j7,start_j10),lt(sub(start_j10,start_j7),2)))</intension>
<intension>iff(task_7_runs_when_11_starts,and(le(start_j7,start_j11),lt(sub(start_j11,start_j7),2)))</intension>
<intension>iff(task_7_runs_when_12_starts,and(le(start_j7,start_j12),lt(sub(start_j12,start_j7),2)))</intension>
<intension>iff(task_7_runs_when_13_starts,and(le(start_j7,start_j13),lt(sub(start_j13,start_j7),2)))</intension>
<intension>iff(task_7_runs_when_14_starts,and(le(start_j7,start_j14),lt(sub(start_j14,start_j7),2)))</intension>
<intension>iff(task_8_runs_when_1_starts,and(le(start_j8,start_j1),lt(sub(start_j1,start_j8),1)))</intension>
<intension>iff(task_8_runs_when_2_starts,and(le(start_j8,start_j2),lt(sub(start_j2,start_j8),1)))</intension>
<intension>iff(task_8_runs_when_3_starts,and(le(start_j8,start_j3),lt(sub(start_j3,start_j8),1)))</intension>
<intension>iff(task_8_runs_when_4_starts,and(le(start_j8,start_j4),lt(sub(start_j4,start_j8),1)))</intension>
<intension>iff(task_8_runs_when_5_starts,and(le(start_j8,start_j5),lt(sub(start_j5,start_j8),1)))</intension>
<intension>iff(task_8_runs_when_6_starts,and(le(start_j8,start_j6),lt(sub(start_j6,start_j8),1)))</intension>
<intension>iff(task_8_runs_when_7_starts,and(le(start_j8,start_j7),lt(sub(start_j7,start_j8),1)))</intension>
<intension>iff(task_8_runs_when_9_starts,and(le(start_j8,start_j9),lt(sub(start_j9,start_j8),1)))</intension>
<intension>iff(task_8_runs_when_10_starts,and(le(start_j8,start_j10),lt(sub(start_j10,start_j8),1)))</intension>
<intension>iff(task_8_runs_when_11_starts,and(le(start_j8,start_j11),lt(sub(start_j11,start_j8),1)))</intension>
<intension>iff(task_8_runs_when_12_starts,and(le(start_j8,start_j12),lt(sub(start_j12,start_j8),1)))</intension>
<intension>iff(task_8_runs_when_13_starts,and(le(start_j8,start_j13),lt(sub(start_j13,start_j8),1)))</intension>
<intension>iff(task_8_runs_when_14_starts,and(le(start_j8,start_j14),lt(sub(start_j14,start_j8),1)))</intension>
<intension>iff(task_9_runs_when_1_starts,and(le(start_j9,start_j1),lt(sub(start_j1,start_j9),4)))</intension>
<intension>iff(task_9_runs_when_2_starts,and(le(start_j9,start_j2),lt(sub(start_j2,start_j9),4)))</intension>
<intension>iff(task_9_runs_when_3_starts,and(le(start_j9,start_j3),lt(sub(start_j3,start_j9),4)))</intension>
<intension>iff(task_9_runs_when_4_starts,and(le(start_j9,start_j4),lt(sub(start_j4,start_j9),4)))</intension>
<intension>iff(task_9_runs_when_5_starts,and(le(start_j9,start_j5),lt(sub(start_j5,start_j9),4)))</intension>
<intension>iff(task_9_runs_when_6_starts,and(le(start_j9,start_j6),lt(sub(start_j6,start_j9),4)))</intension>
<intension>iff(task_9_runs_when_7_starts,and(le(start_j9,start_j7),lt(sub(start_j7,start_j9),4)))</intension>
<intension>iff(task_9_runs_when_8_starts,and(le(start_j9,start_j8),lt(sub(start_j8,start_j9),4)))</intension>
<intension>iff(task_9_runs_when_10_starts,and(le(start_j9,start_j10),lt(sub(start_j10,start_j9),4)))</intension>
<intension>iff(task_9_runs_when_11_starts,and(le(start_j9,start_j11),lt(sub(start_j11,start_j9),4)))</intension>
<intension>iff(task_9_runs_when_12_starts,and(le(start_j9,start_j12),lt(sub(start_j12,start_j9),4)))</intension>
<intension>iff(task_9_runs_when_13_starts,and(le(start_j9,start_j13),lt(sub(start_j13,start_j9),4)))</intension>
<intension>iff(task_9_runs_when_14_starts,and(le(start_j9,start_j14),lt(sub(start_j14,start_j9),4)))</intension>
<intension>iff(task_10_runs_when_1_starts,and(le(start_j10,start_j1),lt(sub(start_j1,start_j10),3)))</intension>
<intension>iff(task_10_runs_when_2_starts,and(le(start_j10,start_j2),lt(sub(start_j2,start_j10),3)))</intension>
<intension>iff(task_10_runs_when_3_starts,and(le(start_j10,start_j3),lt(sub(start_j3,start_j10),3)))</intension>
<intension>iff(task_10_runs_when_4_starts,and(le(start_j10,start_j4),lt(sub(start_j4,start_j10),3)))</intension>
<intension>iff(task_10_runs_when_5_starts,and(le(start_j10,start_j5),lt(sub(start_j5,start_j10),3)))</intension>
<intension>iff(task_10_runs_when_6_starts,and(le(start_j10,start_j6),lt(sub(start_j6,start_j10),3)))</intension>
<intension>iff(task_10_runs_when_7_starts,and(le(start_j10,start_j7),lt(sub(start_j7,start_j10),3)))</intension>
<intension>iff(task_10_runs_when_8_starts,and(le(start_j10,start_j8),lt(sub(start_j8,start_j10),3)))</intension>
<intension>iff(task_10_runs_when_9_starts,and(le(start_j10,start_j9),lt(sub(start_j9,start_j10),3)))</intension>
<intension>iff(task_10_runs_when_11_starts,and(le(start_j10,start_j11),lt(sub(start_j11,start_j10),3)))</intension>
<intension>iff(task_10_runs_when_12_starts,and(le(start_j10,start_j12),lt(sub(start_j12,start_j10),3)))</intension>
<intension>iff(task_10_runs_when_13_starts,and(le(start_j10,start_j13),lt(sub(start_j13,start_j10),3)))</intension>
<intension>iff(task_10_runs_when_14_starts,and(le(start_j10,start_j14),lt(sub(start_j14,start_j10),3)))</intension>
<intension>iff(task_11_runs_when_1_starts,and(le(start_j11,start_j1),lt(sub(start_j1,start_j11),2)))</intension>
<intension>iff(task_11_runs_when_2_starts,and(le(start_j11,start_j2),lt(sub(start_j2,start_j11),2)))</intension>
<intension>iff(task_11_runs_when_3_starts,and(le(start_j11,start_j3),lt(sub(start_j3,start_j11),2)))</intension>
<intension>iff(task_11_runs_when_4_starts,and(le(start_j11,start_j4),lt(sub(start_j4,start_j11),2)))</intension>
<intension>iff(task_11_runs_when_5_starts,and(le(start_j11,start_j5),lt(sub(start_j5,start_j11),2)))</intension>
<intension>iff(task_11_runs_when_6_starts,and(le(start_j11,start_j6),lt(sub(start_j6,start_j11),2)))</intension>
<intension>iff(task_11_runs_when_7_starts,and(le(start_j11,start_j7),lt(sub(start_j7,start_j11),2)))</intension>
<intension>iff(task_11_runs_when_8_starts,and(le(start_j11,start_j8),lt(sub(start_j8,start_j11),2)))</intension>
<intension>iff(task_11_runs_when_9_starts,and(le(start_j11,start_j9),lt(sub(start_j9,start_j11),2)))</intension>
<intension>iff(task_11_runs_when_10_starts,and(le(start_j11,start_j10),lt(sub(start_j10,start_j11),2)))</intension>
<intension>iff(task_11_runs_when_12_starts,and(le(start_j11,start_j12),lt(sub(start_j12,start_j11),2)))</intension>
<intension>iff(task_11_runs_when_13_starts,and(le(start_j11,start_j13),lt(sub(start_j13,start_j11),2)))</intension>
<intension>iff(task_11_runs_when_14_starts,and(le(start_j11,start_j14),lt(sub(start_j14,start_j11),2)))</intension>
<intension>iff(task_12_runs_when_1_starts,and(le(start_j12,start_j1),lt(sub(start_j1,start_j12),3)))</intension>
<intension>iff(task_12_runs_when_2_starts,and(le(start_j12,start_j2),lt(sub(start_j2,start_j12),3)))</intension>
<intension>iff(task_12_runs_when_3_starts,and(le(start_j12,start_j3),lt(sub(start_j3,start_j12),3)))</intension>
<intension>iff(task_12_runs_when_4_starts,and(le(start_j12,start_j4),lt(sub(start_j4,start_j12),3)))</intension>
<intension>iff(task_12_runs_when_5_starts,and(le(start_j12,start_j5),lt(sub(start_j5,start_j12),3)))</intension>
<intension>iff(task_12_runs_when_6_starts,and(le(start_j12,start_j6),lt(sub(start_j6,start_j12),3)))</intension>
<intension>iff(task_12_runs_when_7_starts,and(le(start_j12,start_j7),lt(sub(start_j7,start_j12),3)))</intension>
<intension>iff(task_12_runs_when_8_starts,and(le(start_j12,start_j8),lt(sub(start_j8,start_j12),3)))</intension>
<intension>iff(task_12_runs_when_9_starts,and(le(start_j12,start_j9),lt(sub(start_j9,start_j12),3)))</intension>
<intension>iff(task_12_runs_when_10_starts,and(le(start_j12,start_j10),lt(sub(start_j10,start_j12),3)))</intension>
<intension>iff(task_12_runs_when_11_starts,and(le(start_j12,start_j11),lt(sub(start_j11,start_j12),3)))</intension>
<intension>iff(task_12_runs_when_13_starts,and(le(start_j12,start_j13),lt(sub(start_j13,start_j12),3)))</intension>
<intension>iff(task_12_runs_when_14_starts,and(le(start_j12,start_j14),lt(sub(start_j14,start_j12),3)))</intension>
<intension>iff(task_13_runs_when_1_starts,and(le(start_j13,start_j1),lt(sub(start_j1,start_j13),5)))</intension>
<intension>iff(task_13_runs_when_2_starts,and(le(start_j13,start_j2),lt(sub(start_j2,start_j13),5)))</intension>
<intension>iff(task_13_runs_when_3_starts,and(le(start_j13,start_j3),lt(sub(start_j3,start_j13),5)))</intension>
<intension>iff(task_13_runs_when_4_starts,and(le(start_j13,start_j4),lt(sub(start_j4,start_j13),5)))</intension>
<intension>iff(task_13_runs_when_5_starts,and(le(start_j13,start_j5),lt(sub(start_j5,start_j13),5)))</intension>
<intension>iff(task_13_runs_when_6_starts,and(le(start_j13,start_j6),lt(sub(start_j6,start_j13),5)))</intension>
<intension>iff(task_13_runs_when_7_starts,and(le(start_j13,start_j7),lt(sub(start_j7,start_j13),5)))</intension>
<intension>iff(task_13_runs_when_8_starts,and(le(start_j13,start_j8),lt(sub(start_j8,start_j13),5)))</intension>
<intension>iff(task_13_runs_when_9_starts,and(le(start_j13,start_j9),lt(sub(start_j9,start_j13),5)))</intension>
<intension>iff(task_13_runs_when_10_starts,and(le(start_j13,start_j10),lt(sub(start_j10,start_j13),5)))</intension>
<intension>iff(task_13_runs_when_11_starts,and(le(start_j13,start_j11),lt(sub(start_j11,start_j13),5)))</intension>
<intension>iff(task_13_runs_when_12_starts,and(le(start_j13,start_j12),lt(sub(start_j12,start_j13),5)))</intension>
<intension>iff(task_13_runs_when_14_starts,and(le(start_j13,start_j14),lt(sub(start_j14,start_j13),5)))</intension>
<intension>iff(task_14_runs_when_1_starts,and(le(start_j14,start_j1),lt(sub(start_j1,start_j14),0)))</intension>
<intension>iff(task_14_runs_when_2_starts,and(le(start_j14,start_j2),lt(sub(start_j2,start_j14),0)))</intension>
<intension>iff(task_14_runs_when_3_starts,and(le(start_j14,start_j3),lt(sub(start_j3,start_j14),0)))</intension>
<intension>iff(task_14_runs_when_4_starts,and(le(start_j14,start_j4),lt(sub(start_j4,start_j14),0)))</intension>
<intension>iff(task_14_runs_when_5_starts,and(le(start_j14,start_j5),lt(sub(start_j5,start_j14),0)))</intension>
<intension>iff(task_14_runs_when_6_starts,and(le(start_j14,start_j6),lt(sub(start_j6,start_j14),0)))</intension>
<intension>iff(task_14_runs_when_7_starts,and(le(start_j14,start_j7),lt(sub(start_j7,start_j14),0)))</intension>
<intension>iff(task_14_runs_when_8_starts,and(le(start_j14,start_j8),lt(sub(start_j8,start_j14),0)))</intension>
<intension>iff(task_14_runs_when_9_starts,and(le(start_j14,start_j9),lt(sub(start_j9,start_j14),0)))</intension>
<intension>iff(task_14_runs_when_10_starts,and(le(start_j14,start_j10),lt(sub(start_j10,start_j14),0)))</intension>
<intension>iff(task_14_runs_when_11_starts,and(le(start_j14,start_j11),lt(sub(start_j11,start_j14),0)))</intension>
<intension>iff(task_14_runs_when_12_starts,and(le(start_j14,start_j12),lt(sub(start_j12,start_j14),0)))</intension>
<intension>iff(task_14_runs_when_13_starts,and(le(start_j14,start_j13),lt(sub(start_j13,start_j14),0)))</intension>
<intension>ge(1,add(mul(task_6_runs_when_2_starts,1),mul(task_7_runs_when_2_starts,1)))</intension>
<intension>ge(1,add(mul(task_2_runs_when_6_starts,1),mul(task_7_runs_when_6_starts,1)))</intension>
<intension>ge(1,add(mul(task_2_runs_when_7_starts,1),mul(task_6_runs_when_7_starts,1)))</intension>
<intension>ge(0,mul(task_12_runs_when_9_starts,1))</intension>
<intension>ge(0,mul(task_9_runs_when_12_starts,1))</intension>
<intension>ge(1,add(add(mul(task_9_runs_when_6_starts,1),mul(task_10_runs_when_6_starts,1)),mul(task_11_runs_when_6_starts,1)))</intension>
<intension>ge(1,add(add(mul(task_6_runs_when_9_starts,1),mul(task_10_runs_when_9_starts,1)),mul(task_11_runs_when_9_starts,1)))</intension>
<intension>ge(1,add(add(mul(task_6_runs_when_10_starts,1),mul(task_9_runs_when_10_starts,1)),mul(task_11_runs_when_10_starts,1)))</intension>
<intension>ge(1,add(add(mul(task_6_runs_when_11_starts,1),mul(task_9_runs_when_11_starts,1)),mul(task_10_runs_when_11_starts,1)))</intension>
<intension>ge(start_j1,0)</intension>
<intension>le(start_j1,0)</intension>
<intension>ge(start_j2,0)</intension>
<intension>le(start_j2,40)</intension>
<intension>ge(start_j3,0)</intension>
<intension>le(start_j3,40)</intension>
<intension>ge(start_j4,0)</intension>
<intension>le(start_j4,40)</intension>
<intension>ge(start_j5,0)</intension>
<intension>le(start_j5,40)</intension>
<intension>ge(start_j6,0)</intension>
<intension>le(start_j6,40)</intension>
<intension>ge(start_j7,0)</intension>
<intension>le(start_j7,40)</intension>
<intension>ge(start_j8,0)</intension>
<intension>le(start_j8,40)</intension>
<intension>ge(start_j9,0)</intension>
<intension>le(start_j9,40)</intension>
<intension>ge(start_j10,0)</intension>
<intension>le(start_j10,40)</intension>
<intension>ge(start_j11,0)</intension>
<intension>le(start_j11,40)</intension>
<intension>ge(start_j12,0)</intension>
<intension>le(start_j12,40)</intension>
<intension>ge(start_j13,0)</intension>
<intension>le(start_j13,40)</intension>
<intension>ge(start_j14,0)</intension>
<intension>le(start_j14,40)</intension>
<intension>le(sub(start_j1,start_j2),0)</intension>
<intension>le(sub(start_j1,start_j3),0)</intension>
<intension>le(sub(start_j1,start_j4),0)</intension>
<intension>le(sub(start_j2,start_j9),-6)</intension>
<intension>le(sub(start_j2,start_j10),-6)</intension>
<intension>le(sub(start_j3,start_j5),-4)</intension>
<intension>le(sub(start_j3,start_j6),-4)</intension>
<intension>le(sub(start_j3,start_j7),-4)</intension>
<intension>le(sub(start_j4,start_j8),-3)</intension>
<intension>le(sub(start_j4,start_j11),-3)</intension>
<intension>le(sub(start_j5,start_j10),-1)</intension>
<intension>le(sub(start_j6,start_j12),-6)</intension>
<intension>le(sub(start_j7,start_j8),-2)</intension>
<intension>le(sub(start_j7,start_j11),-2)</intension>
<intension>le(sub(start_j8,start_j13),-1)</intension>
<intension>le(sub(start_j9,start_j14),-4)</intension>
<intension>le(sub(start_j10,start_j12),-3)</intension>
<intension>le(sub(start_j11,start_j12),-2)</intension>
<intension>le(sub(start_j12,start_j13),-3)</intension>
<intension>le(sub(start_j13,start_j14),-5)</intension>
</constraints>
<objectives><minimize>start_j14</minimize></objectives>
</instance>